Minimize
  obj: + x53 + x386 + x389 + x446 + x2574 + x2665 + x2947 + x2949 + x391 + x392 + x393 + x394 + x395 + x2631 + x2657 + x531 + x532 + x644 + x645 + x647 + x2607 + x592 + x843 + x844 + x845 + x1308 + x1333 + x421 + x423 + x425 + x570 + x2814 + x565 + x97 + x599 + x319 + x2917 + x1102 + x1107 + x1108 + x1149 + x437 + x590 + x2788 + x534 + x535 + x536 + x537 + x1178 + x1179 + x1180 + x1752 + x344 + x1106 + x859 + x860 + x2638 + x106 + x107 + x129 + x143 + x397 + x567 + x2670 + x210 + x219 + x222 + x225 + x765 + x584 + x518 + x2777 + x2868 + x195 + x196 + x197 + x199 + x238 + x185 + x516 + x524 + x525 + x526 + x527 + x1181 + x1187 + x1208 + x1235 + x208 + x520 + x202 + x258 + x439 + x449 + x455 + x741 + x2496 + x2673 + x2676 + x2680 + x2681 + x287 + x369 + x371 + x376 + x502 + x2492 + x558 + x559 + x2554 + x2893 + x2097 + x55 + x58 + x656 + x2675 + x2712 + x2720 + x2935 + x133 + x137 + x2781 + x1860 + x1861 + x1127 + x94 + x657 + x658 + x659 + x396 + x398 + x706 + x707 + x708 + x821 + x650 + x651 + x1170 + x1542 + x981 + x855 + x805 + x1041 + x2383 + x1075 + x1076 + x1077 + x1078 + x1079 + x1081 + x1083 + x1085 + x1087 + x1089 + x1091 + x1092 + x1093 + x1094 + x1096 + x1097 + x1098 + x1099 + x1100 + x1261 + x914 + x566 + x568 + x1064 + x1068 + x1349 + x1175 + x1176 + x1177 + x381 + x382 + x384 + x385 + x431 + x434 + x982 + x2582 + x2601 + x1244 + x1276 + x1696 + x453 + x456 + x1196 + x1164 + x268 + x282 + x2137 + x102 + x678 + x1758 + x1770 + x1892 + x1918 + x186 + x306 + x309 + x311 + x853 + x854 + x886 + x1057 + x1251 + x1518 + x2744 + x2923 + x2926 + x2052 + x996 + x967 + x548 + x551 + x552 + x561 + x1383 + x1646 + x557 + x2621 + x2268 + x866 + x514 + x544 + x546 + x2884 + x1150 + x1966 + x2852 + x2641 + x2948 + x317 + x289 + x2791 + x295 + x2494 + x2506 + x676 + x2770 + x1226 + x2752 + x169 + x2796 + x1438 + x1818 + x2767 + x2780 + x1281 + x1300 + x766 + x2384 + x281 + x283 + x589 + x57 + x786 + x851 + x852 + x1915 + x383 + x407 + x2454 + x2595 + x783 + x1163 + x1165 + x1166 + x1168 + x1169 + x2587 + x153 + x154 + x155 + x156 + x424 + x556 + x2766 + x543 + x463 + x491 + x2664 + x2686 + x1850 + x2301 + x2302 + x2303 + x2304 + x2305 + x2552 + x2556 + x2629 + x2639 + x485 + x920 + x408 + x2719 + x2763 + x273 + x274 + x276 + x278 + x593 + x597 + x2473 + x301 + x1133 + x2807 + x2004 + x466 + x467 + x472 + x484 + x486 + x604 + x606 + x635 + x637 + x964 + x1032 + x1042 + x1134 + x1135 + x1137 + x1316 + x1397 + x2586 + x1384 + x553 + x2388 + x122 + x85 + x350 + x354 + x357 + x365 + x460 + x489 + x588 + x554 + x1153 + x1155 + x1156 + x770 + x112 + x585 + x435 + x482 + x963 + x1050 + x1359 + x2507 + x2637 + x2662 + x1158 + x1159 + x131 + x149 + x430 + x433 + x440 + x443 + x450 + x452 + x458 + x661 + x2643 + x2936 + x1007 + x1856 + x114 + x541 + x300 + x43 + x2707 + x785 + x2508 + x2945 + x781 + x1192 + x1365 + x1367 + x1395 + x1401 + x1431 + x1497 + x769 + x771 + x772 + x774 + x775 + x773 + x776 + x184 + x885 + x619 + x841 + x2430 + x823 + x54 + x413 + x2164 + x572 + x575 + x576 + x577 + x2482 + x409 + x1017 + x1859 + x2533 + x2560 + x2597 + x2726 + x1103 + x1104 + x1740 + x528 + x529 + x1067 + x861 + x864 + x873 + x875 + x2773 + x2776 + x587 + x705 + x302 + x2385 + x1055 + x1186 + x1290 + x1614 + x1710 + x2377 + x2378 + x103 + x830 + x831 + x801 + x236 + x84 + x804 + x1680 + x849 + x865 + x872 + x874 + x902 + x1606 + x1608 + x2355 + x2357 + x1263 + x646 + x1207 + x1559 + x1692 + x1953 + x1961 + x1967 + x1997 + x782 + x180 + x1241 + x1243 + x612 + x992 + x2937 + x1229 + x1231 + x2751 + x1751 + x626 + x628 + x2784 + x403 + x1322 + x2285 + x1944 + x1948 + x2038 + x2489 + x1320 + x328 + x341 + x462 + x1939 + x2033 + x2039 + x2158 + x1121 + x1205 + x1804 + x1807 + x1810 + x1819 + x1260 + x1292 + x1868 + x1872 + x1874 + x1875 + x1884 + x1885 + x824 + x827 + x47 + x132 + x141 + x157 + x402 + x2109 + x1440 + x1867 + x2632 + x2738 + x1189 + x2504 + x78 + x497 + x498 + x500 + x503 + x685 + x166 + x533 + x2872 + x320 + x321 + x2706 + x158 + x159 + x368 + x1954 + x2723 + x363 + x1747 + x1038 + x1044 + x1046 + x1052 + x1056 + x1060 + x2278 + x802 + x2865 + x2696 + x601 + x2828 + x2584 + x415 + x672 + x642 + x893 + x894 + x165 + x198 + x387 + x2619 + x296 + x2500 + x1136 + x1607 + x856 + x857 + x172 + x299 + x1238 + x1247 + x538 + x539 + x654 + x889 + x890 + x2111 + x2771 + x1130 + x147 + x2743 + x2747 + x2748 + x1340 + x447 + x2745 + x91 + x1657 + x1422 + x1424 + x1426 + x2553 + x2616 + x148 + x586 + x110 + x969 + x1544 + x401 + x127 + x1485 + x2156 + x2934 + x2456 + x405 + x2610 + x2661 + x991 + x1197 + x146 + x2651 + x2678 + x101 + x2020 + x627 + x629 + x2925 + x1643 + x1027 + x1380 + x2551 + x2890 + x27 + x1673 + x579 + x240 + x983 + x2590 + x2594 + x1645 + x738 + x1529 + x1233 + x581 + x145 + x1140 + x1141 + x2739 + x86 + x795 + x448 + x2635 + x343 + x427 + x1482 + x1678 + x1757 + x1771 + x2733 + x2271 + x475 + x925 + x1021 + x1970 + x1209 + x183 + x293 + x663 + x2054 + x2095 + x2424 + x1393 + x1802 + x1809 + x1815 + x1817 + x2546 + x2708 + x356 + x623 + x505 + x1213 + x2570 + x1267 + x1269 + x2941 + x1305 + x2418 + x1940 + x1211 + x2112 + x1733 + x1801 + x911 + x1022 + x457 + x660 + x662 + x1194 + x2660 + x1109 + x2119 + x2700 + x493
Subject To
  c2:  + x53 + x386 + x389 + x446 + x2574 + x2665 + x2947 + x2949 >= 1
  c3:  + x391 + x392 + x393 + x394 + x395 + x2631 + x2657 >= 1
  c4:  + x531 + x532 + x644 + x645 + x647 >= 1
  c5:  + x2607 >= 1
  c6:  + x592 >= 1
  c7:  + x843 + x844 + x845 >= 1
  c8:  + x1308 >= 1
  c9:  + x1333 >= 1
  c10:  + x421 + x423 + x425 + x570 >= 1
  c11:  + x2814 >= 1
  c12:  + x565 >= 1
  c13:  + x97 + x599 >= 1
  c14:  + x319 >= 1
  c15:  + x2917 >= 1
  c16:  + x1102 + x1107 + x1108 >= 1
  c17:  + x1149 >= 1
  c18:  + x437 + x590 >= 1
  c19:  + x2788 >= 1
  c20:  + x534 + x535 + x536 + x537 + x1178 + x1179 + x1180 >= 1
  c21:  + x1752 >= 1
  c22:  + x53 + x386 + x389 + x2574 + x2665 + x2947 + x2949 >= 1
  c23:  + x344 + x1106 + x1107 + x1108 >= 1
  c24:  + x859 + x860 + x2638 >= 1
  c25:  + x106 + x107 + x129 + x143 + x397 + x421 + x425 + x567 + x2670 >= 1
  c26:  + x210 + x219 + x222 + x225 + x765 + x2788 >= 1
  c27:  + x584 >= 1
  c28:  + x518 >= 1
  c29:  + x2777 + x2868 >= 1
  c30:  + x195 + x196 + x197 + x199 + x238 + x2814 >= 1
  c31:  + x185 >= 1
  c32:  + x516 + x524 + x525 + x526 + x527 + x1181 + x1187 + x1208 + x1235 >= 1
  c33:  + x208 >= 1
  c34:  + x520 >= 1
  c35:  + x202 + x258 + x439 + x446 + x449 + x455 + x741 + x1752 + x2496 + x2673 + x2676 + x2680 + x2681 >= 1
  c36:  + x287 + x369 + x371 + x376 >= 1
  c37:  + x1178 + x1179 + x1180 >= 1
  c38:  + x502 + x1149 + x2492 >= 1
  c39:  + x558 + x559 >= 1
  c40:  + x2554 >= 1
  c41:  + x2893 >= 1
  c42:  + x2097 >= 1
  c43:  + x55 + x58 + x656 + x2657 + x2675 + x2712 + x2720 + x2935 >= 1
  c44:  + x133 + x137 >= 1
  c45:  + x2781 >= 1
  c46:  + x1860 + x1861 >= 1
  c47:  + x1127 >= 1
  c48:  + x2097 >= 1
  c49:  + x94 >= 1
  c50:  + x437 + x590 + x657 + x658 + x659 >= 1
  c51:  + x421 + x425 >= 1
  c52:  + x391 + x392 + x393 + x394 + x395 + x396 + x397 + x398 + x656 + x706 + x707 + x708 + x2631 + x2657 + x2673 + x2675 >= 1
  c53:  + x821 >= 1
  c54:  + x650 + x651 + x1170 >= 1
  c55:  + x1542 >= 1
  c56:  + x425 + x981 + x2631 >= 1
  c57:  + x843 + x845 + x855 >= 1
  c58:  + x97 + x599 + x805 + x1041 + x2383 >= 1
  c59:  + x1075 + x1076 + x1077 + x1078 + x1079 + x1081 + x1083 + x1085 + x1087 + x1089 + x1091 + x1092 + x1093 + x1094 + x1096 + x1097 + x1098 + x1099 + x1100 + x1261 >= 1
  c60:  + x914 >= 1
  c61:  + x566 >= 1
  c62:  + x516 + x524 + x525 + x526 + x527 + x1181 + x1187 + x1208 + x1235 >= 1
  c63:  + x568 >= 1
  c64:  + x1064 + x1068 >= 1
  c65:  + x1349 >= 1
  c66:  + x1175 + x1176 + x1177 >= 1
  c67:  + x53 >= 1
  c68:  + x53 + x381 + x382 + x384 + x385 + x431 + x434 + x446 + x981 + x982 + x2574 + x2582 + x2601 + x2949 >= 1
  c69:  + x568 + x1244 + x1276 + x1696 >= 1
  c70:  + x391 + x393 + x395 + x397 + x398 + x453 + x456 + x706 + x707 + x708 + x2657 + x2675 >= 1
  c71:  + x1196 >= 1
  c72:  + x1164 >= 1
  c73:  + x268 + x282 >= 1
  c74:  + x53 + x2137 + x2665 >= 1
  c75:  + x2097 >= 1
  c76:  + x102 + x439 + x446 + x678 + x2582 + x2673 >= 1
  c77:  + x1758 + x1770 + x1892 + x1918 >= 1
  c78:  + x186 >= 1
  c79:  + x306 + x309 + x311 + x853 + x854 + x886 + x1057 + x1251 >= 1
  c80:  + x394 + x1518 + x2744 + x2923 + x2926 >= 1
  c81:  + x2052 >= 1
  c82:  + x996 >= 1
  c83:  + x967 >= 1
  c84:  + x548 + x551 + x552 + x558 + x561 + x1383 + x1646 >= 1
  c85:  + x557 + x2621 >= 1
  c86:  + x2268 >= 1
  c87:  + x914 >= 1
  c88:  + x859 + x860 + x866 + x2638 >= 1
  c89:  + x1179 >= 1
  c90:  + x514 + x518 + x544 + x546 >= 1
  c91:  + x2884 >= 1
  c92:  + x389 + x2574 + x2665 + x2947 + x2949 >= 1
  c93:  + x344 + x1860 + x1861 >= 1
  c94:  + x1150 >= 1
  c95:  + x55 + x58 + x1966 + x2852 >= 1
  c96:  + x106 + x391 + x393 + x394 + x395 + x397 + x398 + x421 + x656 + x706 + x707 + x708 + x981 + x982 + x2631 + x2641 + x2657 + x2670 + x2673 + x2948 >= 1
  c97:  + x317 + x319 >= 1
  c98:  + x289 + x2791 >= 1
  c99:  + x295 >= 1
  c100:  + x2494 + x2506 >= 1
  c101:  + x676 >= 1
  c102:  + x2770 >= 1
  c103:  + x1226 + x2752 >= 1
  c104:  + x169 + x534 + x535 + x536 + x537 + x2796 >= 1
  c105:  + x1438 >= 1
  c106:  + x1818 >= 1
  c107:  + x2767 + x2780 + x2781 >= 1
  c108:  + x1281 + x1300 >= 1
  c109:  + x1150 >= 1
  c110:  + x1175 + x1176 + x1177 >= 1
  c111:  + x859 + x860 + x2638 >= 1
  c112:  + x392 + x393 + x394 + x395 + x396 + x397 + x570 + x706 + x766 + x2384 + x2657 + x2673 >= 1
  c113:  + x281 + x283 + x397 + x589 >= 1
  c114:  + x57 + x786 + x851 + x852 + x1915 >= 1
  c115:  + x382 + x383 + x384 + x385 + x407 + x431 + x434 + x981 + x2384 + x2454 + x2574 + x2582 + x2595 + x2665 >= 1
  c116:  + x783 + x851 + x1163 + x1165 + x1166 + x1168 + x1169 + x2587 >= 1
  c117:  + x394 + x395 + x2641 >= 1
  c118:  + x153 + x154 + x155 + x156 >= 1
  c119:  + x424 + x556 + x783 + x786 + x851 + x852 + x2496 + x2766 + x2767 + x2948 >= 1
  c120:  + x208 + x398 >= 1
  c121:  + x543 >= 1
  c122:  + x394 + x395 + x463 + x491 + x2641 + x2657 + x2664 + x2686 + x2935 >= 1
  c123:  + x2780 >= 1
  c124:  + x566 >= 1
  c125:  + x2587 >= 1
  c126:  + x1175 + x1176 + x1177 >= 1
  c127:  + x1850 + x2301 + x2302 + x2303 + x2304 + x2305 + x2552 + x2556 + x2629 + x2639 >= 1
  c128:  + x53 + x381 + x382 + x383 + x384 + x385 + x431 + x485 + x981 + x982 + x2595 + x2949 >= 1
  c129:  + x920 >= 1
  c130:  + x381 + x382 + x383 + x384 + x385 + x407 + x408 + x431 + x434 + x446 + x981 + x982 + x2384 + x2454 + x2574 + x2582 + x2595 + x2665 + x2948 >= 1
  c131:  + x524 + x525 + x526 + x527 >= 1
  c132:  + x520 >= 1
  c133:  + x421 + x981 + x2664 + x2675 + x2719 + x2763 >= 1
  c134:  + x273 + x274 + x276 + x278 + x281 + x283 + x570 >= 1
  c135:  + x593 + x597 + x783 + x851 + x852 + x2473 >= 1
  c136:  + x859 + x860 + x2638 >= 1
  c137:  + x384 + x385 + x706 + x981 + x2595 >= 1
  c138:  + x196 >= 1
  c139:  + x369 >= 1
  c140:  + x301 + x1133 >= 1
  c141:  + x2807 >= 1
  c142:  + x2004 >= 1
  c143:  + x466 + x467 + x472 + x484 + x486 + x604 + x606 + x635 + x637 + x964 + x1032 + x1042 + x1134 + x1135 + x1137 + x1316 + x1397 + x2586 >= 1
  c144:  + x1384 >= 1
  c145:  + x553 >= 1
  c146:  + x398 >= 1
  c147:  + x996 >= 1
  c148:  + x2388 >= 1
  c149:  + x122 >= 1
  c150:  + x85 + x350 + x354 + x357 + x365 + x460 + x489 >= 1
  c151:  + x1075 + x1076 + x1077 + x1078 + x1079 + x1081 + x1083 + x1085 + x1087 + x1089 + x1091 + x1092 + x1093 + x1094 + x1096 + x1097 + x1098 + x1099 + x1100 + x1261 >= 1
  c152:  + x276 + x588 >= 1
  c153:  + x485 >= 1
  c154:  + x382 >= 1
  c155:  + x94 + x554 >= 1
  c156:  + x289 + x1153 + x1155 + x1156 + x2791 >= 1
  c157:  + x770 >= 1
  c158:  + x112 + x585 >= 1
  c159:  + x967 >= 1
  c160:  + x1134 + x1137 + x1316 >= 1
  c161:  + x531 + x532 + x644 + x645 + x647 >= 1
  c162:  + x381 + x383 + x384 + x435 + x446 + x482 + x484 + x486 + x963 + x964 + x981 + x982 + x1050 + x1106 + x1107 + x1137 + x1359 + x2507 + x2574 + x2595 + x2601 + x2637 + x2662 >= 1
  c163:  + x1158 + x1159 >= 1
  c164:  + x1860 >= 1
  c165:  + x131 >= 1
  c166:  + x2766 + x2767 >= 1
  c167:  + x149 + x408 + x430 + x433 + x440 + x443 + x450 + x452 + x453 + x458 + x661 + x706 + x707 + x708 + x2496 + x2595 + x2643 + x2936 >= 1
  c168:  + x1091 + x1092 + x1099 >= 1
  c169:  + x1007 + x1856 >= 1
  c170:  + x381 + x382 + x384 + x385 + x431 + x446 + x981 + x982 + x2574 + x2582 + x2601 + x2949 >= 1
  c171:  + x114 + x541 + x543 >= 1
  c172:  + x300 >= 1
  c173:  + x43 >= 1
  c174:  + x2707 >= 1
  c175:  + x785 + x859 >= 1
  c176:  + x852 >= 1
  c177:  + x153 + x154 + x155 + x156 >= 1
  c178:  + x57 + x154 + x783 + x785 + x851 + x852 + x1915 + x2496 + x2508 + x2945 >= 1
  c179:  + x781 >= 1
  c180:  + x1149 >= 1
  c181:  + x1192 + x1365 + x1367 + x1395 + x1401 + x1431 + x1497 >= 1
  c182:  + x769 + x771 + x772 + x774 + x775 >= 1
  c183:  + x773 + x776 >= 1
  c184:  + x184 + x186 + x885 >= 1
  c185:  + x619 + x841 + x1050 + x2430 >= 1
  c186:  + x282 >= 1
  c187:  + x381 + x382 + x384 + x385 + x435 + x2947 >= 1
  c188:  + x823 >= 1
  c189:  + x54 + x57 + x413 + x741 + x2164 >= 1
  c190:  + x524 + x525 + x526 + x527 >= 1
  c191:  + x572 + x575 + x576 + x577 >= 1
  c192:  + x2482 >= 1
  c193:  + x409 >= 1
  c194:  + x466 + x467 + x1017 + x1859 + x2533 + x2560 + x2597 + x2726 >= 1
  c195:  + x1103 + x1104 >= 1
  c196:  + x423 + x425 >= 1
  c197:  + x1740 >= 1
  c198:  + x528 + x529 + x1067 >= 1
  c199:  + x861 + x864 + x873 + x875 >= 1
  c200:  + x1177 >= 1
  c201:  + x2773 + x2776 >= 1
  c202:  + x274 + x570 + x587 >= 1
  c203:  + x524 >= 1
  c204:  + x705 >= 1
  c205:  + x301 + x302 + x2385 >= 1
  c206:  + x1055 + x1186 + x1290 + x1614 + x1710 + x2377 + x2378 >= 1
  c207:  + x103 >= 1
  c208:  + x830 + x831 >= 1
  c209:  + x801 >= 1
  c210:  + x154 + x2496 + x2508 >= 1
  c211:  + x53 + x389 + x2574 + x2665 + x2947 + x2949 >= 1
  c212:  + x656 >= 1
  c213:  + x195 + x197 + x236 + x238 >= 1
  c214:  + x84 >= 1
  c215:  + x1163 >= 1
  c216:  + x535 >= 1
  c217:  + x804 >= 1
  c218:  + x1680 >= 1
  c219:  + x2948 >= 1
  c220:  + x1169 + x2587 >= 1
  c221:  + x849 + x865 + x866 + x872 + x874 >= 1
  c222:  + x902 + x996 + x1606 + x1608 >= 1
  c223:  + x592 >= 1
  c224:  + x516 >= 1
  c225:  + x524 >= 1
  c226:  + x568 >= 1
  c227:  + x772 + x774 + x2355 + x2357 >= 1
  c228:  + x1263 >= 1
  c229:  + x534 + x537 + x646 >= 1
  c230:  + x1207 + x1559 + x1692 + x1953 + x1961 + x1967 + x1997 >= 1
  c231:  + x782 >= 1
  c232:  + x180 + x1241 + x1243 >= 1
  c233:  + x612 >= 1
  c234:  + x397 + x421 + x423 + x425 + x570 + x706 + x992 + x2384 + x2595 + x2673 + x2937 + x2948 >= 1
  c235:  + x1178 + x1179 + x1180 >= 1
  c236:  + x1226 + x1229 + x1231 + x2751 + x2752 >= 1
  c237:  + x1751 >= 1
  c238:  + x626 + x628 + x1106 + x2784 >= 1
  c239:  + x403 + x435 + x1322 >= 1
  c240:  + x2285 >= 1
  c241:  + x1860 + x1861 >= 1
  c242:  + x1944 + x1948 + x2038 + x2489 >= 1
  c243:  + x1320 >= 1
  c244:  + x55 + x58 + x2657 + x2675 + x2720 >= 1
  c245:  + x328 + x341 + x462 >= 1
  c246:  + x1939 + x1944 + x1948 + x2033 + x2038 + x2039 + x2489 >= 1
  c247:  + x2158 >= 1
  c248:  + x143 >= 1
  c249:  + x1121 >= 1
  c250:  + x1064 >= 1
  c251:  + x1205 >= 1
  c252:  + x1850 + x2303 >= 1
  c253:  + x592 >= 1
  c254:  + x568 >= 1
  c255:  + x53 + x2665 >= 1
  c256:  + x1804 + x1807 + x1810 + x1819 >= 1
  c257:  + x1260 + x1292 + x1868 + x1872 + x1874 + x1875 + x1884 + x1885 >= 1
  c258:  + x466 + x467 + x2560 >= 1
  c259:  + x830 >= 1
  c260:  + x824 + x827 >= 1
  c261:  + x541 + x543 + x593 >= 1
  c262:  + x47 + x132 + x133 + x141 >= 1
  c263:  + x157 + x402 + x2109 >= 1
  c264:  + x1440 >= 1
  c265:  + x1867 >= 1
  c266:  + x2632 >= 1
  c267:  + x2738 >= 1
  c268:  + x1189 >= 1
  c269:  + x2504 >= 1
  c270:  + x996 >= 1
  c271:  + x78 + x497 + x498 + x500 + x502 + x503 + x685 + x2492 + x2496 + x2508 >= 1
  c272:  + x996 >= 1
  c273:  + x166 + x531 + x532 + x533 + x2872 >= 1
  c274:  + x320 + x321 + x2706 >= 1
  c275:  + x157 + x158 + x159 + x557 >= 1
  c276:  + x317 + x319 >= 1
  c277:  + x368 >= 1
  c278:  + x676 >= 1
  c279:  + x1874 + x1884 + x2556 + x2629 + x2639 >= 1
  c280:  + x1860 >= 1
  c281:  + x1954 + x2723 >= 1
  c282:  + x363 >= 1
  c283:  + x592 >= 1
  c284:  + x1747 >= 1
  c285:  + x534 >= 1
  c286:  + x1038 + x1044 + x1046 + x1052 + x1056 + x1060 >= 1
  c287:  + x2278 >= 1
  c288:  + x708 + x802 + x982 + x992 + x2595 >= 1
  c289:  + x2164 >= 1
  c290:  + x824 + x866 >= 1
  c291:  + x2865 >= 1
  c292:  + x129 >= 1
  c293:  + x592 >= 1
  c294:  + x592 >= 1
  c295:  + x2696 >= 1
  c296:  + x601 >= 1
  c297:  + x2828 >= 1
  c298:  + x2584 >= 1
  c299:  + x317 + x319 >= 1
  c300:  + x592 >= 1
  c301:  + x2865 >= 1
  c302:  + x415 + x672 >= 1
  c303:  + x642 >= 1
  c304:  + x893 + x894 >= 1
  c305:  + x1860 + x1861 >= 1
  c306:  + x165 >= 1
  c307:  + x198 + x199 >= 1
  c308:  + x387 + x446 + x766 + x2619 + x2637 >= 1
  c309:  + x296 + x2500 >= 1
  c310:  + x1137 >= 1
  c311:  + x391 + x398 + x570 >= 1
  c312:  + x1121 + x1136 + x1607 >= 1
  c313:  + x440 + x2676 >= 1
  c314:  + x853 + x854 + x855 + x856 + x857 >= 1
  c315:  + x172 + x180 + x299 + x1238 + x1241 + x1243 + x1247 >= 1
  c316:  + x538 + x539 >= 1
  c317:  + x446 + x654 + x2574 + x2582 >= 1
  c318:  + x534 + x537 + x646 >= 1
  c319:  + x1860 + x1861 >= 1
  c320:  + x889 + x890 + x893 + x894 >= 1
  c321:  + x2111 >= 1
  c322:  + x1178 + x1179 + x1180 >= 1
  c323:  + x2771 >= 1
  c324:  + x1130 + x1133 >= 1
  c325:  + x147 + x2743 + x2747 + x2748 >= 1
  c326:  + x1340 >= 1
  c327:  + x786 >= 1
  c328:  + x841 + x1050 >= 1
  c329:  + x447 + x2745 >= 1
  c330:  + x1178 + x1179 + x1180 >= 1
  c331:  + x551 >= 1
  c332:  + x91 >= 1
  c333:  + x1657 >= 1
  c334:  + x1422 + x1424 + x1426 + x1818 + x2553 + x2616 >= 1
  c335:  + x2781 >= 1
  c336:  + x148 + x586 + x644 + x2747 >= 1
  c337:  + x110 >= 1
  c338:  + x969 >= 1
  c339:  + x1544 >= 1
  c340:  + x396 + x401 >= 1
  c341:  + x2696 >= 1
  c342:  + x127 + x645 + x647 + x1485 >= 1
  c343:  + x446 >= 1
  c344:  + x982 + x2670 >= 1
  c345:  + x2156 + x2934 >= 1
  c346:  + x1099 >= 1
  c347:  + x1438 + x2456 >= 1
  c348:  + x524 + x526 + x527 >= 1
  c349:  + x405 + x706 >= 1
  c350:  + x2610 + x2661 >= 1
  c351:  + x53 + x384 + x385 + x981 + x982 + x2601 + x2949 >= 1
  c352:  + x2033 + x2038 + x2489 >= 1
  c353:  + x991 + x1397 >= 1
  c354:  + x1197 >= 1
  c355:  + x102 + x146 + x2651 + x2657 + x2678 + x2745 >= 1
  c356:  + x101 + x565 + x2670 >= 1
  c357:  + x2020 >= 1
  c358:  + x1967 >= 1
  c359:  + x466 + x467 + x2560 + x2726 >= 1
  c360:  + x57 + x783 + x851 + x852 >= 1
  c361:  + x627 + x628 + x629 >= 1
  c362:  + x2923 + x2925 >= 1
  c363:  + x1643 >= 1
  c364:  + x853 + x855 + x856 + x1027 >= 1
  c365:  + x1380 + x2551 >= 1
  c366:  + x2890 >= 1
  c367:  + x2776 >= 1
  c368:  + x27 + x1673 >= 1
  c369:  + x2865 >= 1
  c370:  + x579 >= 1
  c371:  + x772 >= 1
  c372:  + x240 >= 1
  c373:  + x619 + x841 + x983 + x1050 + x2430 + x2590 + x2594 + x2662 >= 1
  c374:  + x1645 >= 1
  c375:  + x54 + x738 >= 1
  c376:  + x1529 >= 1
  c377:  + x317 + x1233 >= 1
  c378:  + x581 >= 1
  c379:  + x537 >= 1
  c380:  + x2796 >= 1
  c381:  + x198 >= 1
  c382:  + x145 + x147 + x2747 >= 1
  c383:  + x1140 + x1141 >= 1
  c384:  + x2739 >= 1
  c385:  + x1422 + x1424 + x1426 + x1818 + x2553 + x2616 >= 1
  c386:  + x86 >= 1
  c387:  + x281 >= 1
  c388:  + x795 >= 1
  c389:  + x1134 >= 1
  c390:  + x448 + x2635 >= 1
  c391:  + x343 >= 1
  c392:  + x427 >= 1
  c393:  + x1482 + x1678 + x1757 + x1771 >= 1
  c394:  + x2733 >= 1
  c395:  + x2271 >= 1
  c396:  + x475 >= 1
  c397:  + x925 >= 1
  c398:  + x528 + x529 + x1021 + x1067 >= 1
  c399:  + x462 >= 1
  c400:  + x443 >= 1
  c401:  + x1970 >= 1
  c402:  + x1209 >= 1
  c403:  + x183 + x293 + x439 + x446 + x661 + x663 + x2054 + x2095 + x2424 + x2584 + x2673 + x2681 >= 1
  c404:  + x57 + x783 + x851 + x852 + x1915 + x2496 + x2945 >= 1
  c405:  + x2780 >= 1
  c406:  + x1393 + x1802 + x1809 + x1815 + x1817 + x1884 + x2546 + x2552 + x2556 + x2629 + x2639 >= 1
  c407:  + x864 >= 1
  c408:  + x423 + x425 + x981 >= 1
  c409:  + x2708 >= 1
  c410:  + x852 + x2496 + x2508 + x2945 >= 1
  c411:  + x356 + x623 >= 1
  c412:  + x505 + x1165 >= 1
  c413:  + x157 >= 1
  c414:  + x1213 + x1818 >= 1
  c415:  + x1133 >= 1
  c416:  + x518 >= 1
  c417:  + x2570 >= 1
  c418:  + x1263 + x1267 + x1269 >= 1
  c419:  + x2156 + x2941 >= 1
  c420:  + x1305 >= 1
  c421:  + x424 >= 1
  c422:  + x2418 + x2949 >= 1
  c423:  + x1940 >= 1
  c424:  + x1211 + x2112 >= 1
  c425:  + x1733 >= 1
  c426:  + x356 >= 1
  c427:  + x1801 >= 1
  c428:  + x911 + x1022 + x1867 >= 1
  c429:  + x593 >= 1
  c430:  + x457 + x660 + x662 + x1194 + x2660 + x2664 >= 1
  c431:  + x1109 + x2119 + x2700 >= 1
  c432:  + x969 >= 1
  c433:  + x493 >= 1
Bounds
Binary
  x53
  x386
  x389
  x446
  x2574
  x2665
  x2947
  x2949
  x391
  x392
  x393
  x394
  x395
  x2631
  x2657
  x531
  x532
  x644
  x645
  x647
  x2607
  x592
  x843
  x844
  x845
  x1308
  x1333
  x421
  x423
  x425
  x570
  x2814
  x565
  x97
  x599
  x319
  x2917
  x1102
  x1107
  x1108
  x1149
  x437
  x590
  x2788
  x534
  x535
  x536
  x537
  x1178
  x1179
  x1180
  x1752
  x344
  x1106
  x859
  x860
  x2638
  x106
  x107
  x129
  x143
  x397
  x567
  x2670
  x210
  x219
  x222
  x225
  x765
  x584
  x518
  x2777
  x2868
  x195
  x196
  x197
  x199
  x238
  x185
  x516
  x524
  x525
  x526
  x527
  x1181
  x1187
  x1208
  x1235
  x208
  x520
  x202
  x258
  x439
  x449
  x455
  x741
  x2496
  x2673
  x2676
  x2680
  x2681
  x287
  x369
  x371
  x376
  x502
  x2492
  x558
  x559
  x2554
  x2893
  x2097
  x55
  x58
  x656
  x2675
  x2712
  x2720
  x2935
  x133
  x137
  x2781
  x1860
  x1861
  x1127
  x94
  x657
  x658
  x659
  x396
  x398
  x706
  x707
  x708
  x821
  x650
  x651
  x1170
  x1542
  x981
  x855
  x805
  x1041
  x2383
  x1075
  x1076
  x1077
  x1078
  x1079
  x1081
  x1083
  x1085
  x1087
  x1089
  x1091
  x1092
  x1093
  x1094
  x1096
  x1097
  x1098
  x1099
  x1100
  x1261
  x914
  x566
  x568
  x1064
  x1068
  x1349
  x1175
  x1176
  x1177
  x381
  x382
  x384
  x385
  x431
  x434
  x982
  x2582
  x2601
  x1244
  x1276
  x1696
  x453
  x456
  x1196
  x1164
  x268
  x282
  x2137
  x102
  x678
  x1758
  x1770
  x1892
  x1918
  x186
  x306
  x309
  x311
  x853
  x854
  x886
  x1057
  x1251
  x1518
  x2744
  x2923
  x2926
  x2052
  x996
  x967
  x548
  x551
  x552
  x561
  x1383
  x1646
  x557
  x2621
  x2268
  x866
  x514
  x544
  x546
  x2884
  x1150
  x1966
  x2852
  x2641
  x2948
  x317
  x289
  x2791
  x295
  x2494
  x2506
  x676
  x2770
  x1226
  x2752
  x169
  x2796
  x1438
  x1818
  x2767
  x2780
  x1281
  x1300
  x766
  x2384
  x281
  x283
  x589
  x57
  x786
  x851
  x852
  x1915
  x383
  x407
  x2454
  x2595
  x783
  x1163
  x1165
  x1166
  x1168
  x1169
  x2587
  x153
  x154
  x155
  x156
  x424
  x556
  x2766
  x543
  x463
  x491
  x2664
  x2686
  x1850
  x2301
  x2302
  x2303
  x2304
  x2305
  x2552
  x2556
  x2629
  x2639
  x485
  x920
  x408
  x2719
  x2763
  x273
  x274
  x276
  x278
  x593
  x597
  x2473
  x301
  x1133
  x2807
  x2004
  x466
  x467
  x472
  x484
  x486
  x604
  x606
  x635
  x637
  x964
  x1032
  x1042
  x1134
  x1135
  x1137
  x1316
  x1397
  x2586
  x1384
  x553
  x2388
  x122
  x85
  x350
  x354
  x357
  x365
  x460
  x489
  x588
  x554
  x1153
  x1155
  x1156
  x770
  x112
  x585
  x435
  x482
  x963
  x1050
  x1359
  x2507
  x2637
  x2662
  x1158
  x1159
  x131
  x149
  x430
  x433
  x440
  x443
  x450
  x452
  x458
  x661
  x2643
  x2936
  x1007
  x1856
  x114
  x541
  x300
  x43
  x2707
  x785
  x2508
  x2945
  x781
  x1192
  x1365
  x1367
  x1395
  x1401
  x1431
  x1497
  x769
  x771
  x772
  x774
  x775
  x773
  x776
  x184
  x885
  x619
  x841
  x2430
  x823
  x54
  x413
  x2164
  x572
  x575
  x576
  x577
  x2482
  x409
  x1017
  x1859
  x2533
  x2560
  x2597
  x2726
  x1103
  x1104
  x1740
  x528
  x529
  x1067
  x861
  x864
  x873
  x875
  x2773
  x2776
  x587
  x705
  x302
  x2385
  x1055
  x1186
  x1290
  x1614
  x1710
  x2377
  x2378
  x103
  x830
  x831
  x801
  x236
  x84
  x804
  x1680
  x849
  x865
  x872
  x874
  x902
  x1606
  x1608
  x2355
  x2357
  x1263
  x646
  x1207
  x1559
  x1692
  x1953
  x1961
  x1967
  x1997
  x782
  x180
  x1241
  x1243
  x612
  x992
  x2937
  x1229
  x1231
  x2751
  x1751
  x626
  x628
  x2784
  x403
  x1322
  x2285
  x1944
  x1948
  x2038
  x2489
  x1320
  x328
  x341
  x462
  x1939
  x2033
  x2039
  x2158
  x1121
  x1205
  x1804
  x1807
  x1810
  x1819
  x1260
  x1292
  x1868
  x1872
  x1874
  x1875
  x1884
  x1885
  x824
  x827
  x47
  x132
  x141
  x157
  x402
  x2109
  x1440
  x1867
  x2632
  x2738
  x1189
  x2504
  x78
  x497
  x498
  x500
  x503
  x685
  x166
  x533
  x2872
  x320
  x321
  x2706
  x158
  x159
  x368
  x1954
  x2723
  x363
  x1747
  x1038
  x1044
  x1046
  x1052
  x1056
  x1060
  x2278
  x802
  x2865
  x2696
  x601
  x2828
  x2584
  x415
  x672
  x642
  x893
  x894
  x165
  x198
  x387
  x2619
  x296
  x2500
  x1136
  x1607
  x856
  x857
  x172
  x299
  x1238
  x1247
  x538
  x539
  x654
  x889
  x890
  x2111
  x2771
  x1130
  x147
  x2743
  x2747
  x2748
  x1340
  x447
  x2745
  x91
  x1657
  x1422
  x1424
  x1426
  x2553
  x2616
  x148
  x586
  x110
  x969
  x1544
  x401
  x127
  x1485
  x2156
  x2934
  x2456
  x405
  x2610
  x2661
  x991
  x1197
  x146
  x2651
  x2678
  x101
  x2020
  x627
  x629
  x2925
  x1643
  x1027
  x1380
  x2551
  x2890
  x27
  x1673
  x579
  x240
  x983
  x2590
  x2594
  x1645
  x738
  x1529
  x1233
  x581
  x145
  x1140
  x1141
  x2739
  x86
  x795
  x448
  x2635
  x343
  x427
  x1482
  x1678
  x1757
  x1771
  x2733
  x2271
  x475
  x925
  x1021
  x1970
  x1209
  x183
  x293
  x663
  x2054
  x2095
  x2424
  x1393
  x1802
  x1809
  x1815
  x1817
  x2546
  x2708
  x356
  x623
  x505
  x1213
  x2570
  x1267
  x1269
  x2941
  x1305
  x2418
  x1940
  x1211
  x2112
  x1733
  x1801
  x911
  x1022
  x457
  x660
  x662
  x1194
  x2660
  x1109
  x2119
  x2700
  x493
End
